sat
(:max-memory         18.15
 :memory             18.05
 :nlsat-conflicts    15
 :nlsat-decisions    2
 :nlsat-propagations 71
 :nlsat-stages       18
 :num-allocs         49935
 :rlimit-count       17186
 :time               0.01
 :total-time         0.02)
